num_offers = 40;
num_halls = 10;
start=[82,58,14,55,61,47,25,37,19,7,45,25,6,45,47,22,54,59,92,2,38,15,18,13,31,12,80,1,16,1,6,60,30,12,31,64,82,78,40,17];
end=[88,89,23,85,69,72,77,54,43,28,48,97,97,70,59,100,97,95,95,11,90,93,98,16,45,31,93,6,40,21,9,77,91,31,86,100,96,94,49,79];
price=[481,946,829,2863,189,2457,2413,1218,768,2107,70,6767,6826,1503,152,1658,1180,1757,379,238,4373,5546,4292,63,1415,833,231,210,1314,1634,222,1160,5797,768,1363,2008,153,1249,466,3330];
requirement=[898,969,420,835,864,956,784,336,253,415,704,247,518,614,744,378,946,879,597,371,306,500,995,367,448,943,356,628,213,911,365,704,597,781,891,716,343,940,686,693];
capacity=[954,903,797,718,339,855,360,839,816,986];
